3 181
58 43
17 164
80 75
92 17
86 14
81 67
1 154
9 193
57 39
55 30
19 92
48 105
31 60
23 115
32 8
16 8
10 184
23 127
38 107
11 93
16 57
66 51
28 27
21 105
16 187
32 58
24 138
2 52
99 12
17 41
51 64
28 90
50 68
32 16
24 82
13 66
30 22
81 21
26 79
45 17
53 112
10 147
41 83
70 34
10 199
4 137
8 143
10 144
9 127
